/*********************************************
 * OPL 12.6.0.0 Data
 * Author: Adrian Rodriguez Bazaga, Pau Rodriguez Esmerats
 * Creation Date: 21/11/2017 at 23:07:30
 *********************************************/

nNurses=187;
maxConsec=2;
maxPresence=7;
maxHours=5;
minHours=1;
demand= [48 44 59 65 44 59 65 46 40 21 6 6 8 6 9 4 5 2 3 0 29 61 33 51  ];
